
  32    4
  10   10   10   10

   0   0   0   0   0   2 2 5 
   1   1   1   0   1   2 7 3 
   7   5   0   1   4   2 13 4 
   4   4   5   0   4   2 12 6 
   2   0   4   3   6   1 6 
   3   5   4   1   0   3 10 9 8 
   9   4   0   2   4   2 12 8 
   4   2   5   3   0   3 16 15 11 
   6   0   5   4   6   5 24 22 19 18 16 
   5   0   3   2   3   4 24 18 17 16 
  10   0   6   4   6   2 22 14 
   7   2   3   0   5   4 24 21 18 17 
  10   3   0   8   4   4 24 19 18 16 
   9   6   5   2   0   3 24 19 18 
   1   2   9   6   0   3 24 20 19 
   4   5   4   0   3   2 21 20 
   7   0   6   5   4   2 22 20 
   1   0   2   2   3   1 20 
   8   2   4   3   0   1 21 
   2   0   3   5   9   1 23 
   5   5   0   9   2   1 23 
   5   1   5   0   7   1 23 
   2   0   3   3   3   1 25 
  10   6   3   0   4   1 25 
   1   0   5   4   4   1 26 
   7   0   4   3   3   1 27 
   2   6   4   5   0   2 29 28 
   6   0   3   7   3   1 31 
   9   8   0   6   2   1 30 
   2   5   2   0   4   1 32
   3   0   2   4   2   1 32
   0   0   0   0   0   0 
